data/solutions/recovery/degenerate/intermediate/binding/degenerate_intermediate_instance37/9.sol
Elapsed time: 0.03
Upper bound: 185077.0
Planning weighted value: 9400251782.0
C[0]=185077.0
C[1]=184908.0
C[2]=184774.0
C[3]=182459.0
C[4]=180158.0
C[5]=176912.0
C[6]=173994.0
C[7]=173434.0
C[8]=167235.0
C[9]=161244.0
C[10]=144502.0
C[11]=141401.0
C[12]=117049.0
C[13]=116861.0
C[14]=0.0
C[15]=0.0
y[0]=5
y[1]=1
y[2]=2
y[3]=5
y[4]=11
y[5]=13
y[6]=4
y[7]=6
y[8]=0
y[9]=9
y[10]=5
y[11]=3
y[12]=5
y[13]=10
y[14]=2
y[15]=9
y[16]=2
y[17]=7
y[18]=12
y[19]=5
y[20]=5
y[21]=7
y[22]=13
y[23]=12
y[24]=9
y[25]=7
y[26]=6
y[27]=8
y[28]=6
y[29]=7
y[30]=1
y[31]=0
y[32]=1
y[33]=4
y[34]=12
y[35]=3
y[36]=13
y[37]=11
y[38]=5
y[39]=2
y[40]=11
y[41]=5
y[42]=4
y[43]=11
y[44]=8
y[45]=13
y[46]=1
y[47]=10
y[48]=8
y[49]=3
y[50]=10
y[51]=0
y[52]=1
y[53]=5
y[54]=6
y[55]=3
y[56]=12
y[57]=9
y[58]=0
y[59]=5
y[60]=8
y[61]=2
y[62]=0
y[63]=7
y[64]=4
