data/solutions/recovery/degenerate/intermediate/binding/degenerate_intermediate_instance37/9.log

Log started (V12.6.3.0) Sun Apr 22 12:33:17 2018

New value for default parallel thread count: 1

Problem '/tmp/tmpTmN_On.pyomo.lp' read.
Read time = 0.01 sec. (0.78 ticks)

Problem name         : /tmp/tmpTmN_On.pyomo.lp
Objective sense      : Minimize
Variables            :    1058  [Nneg: 1,  Binary: 1040,  General Integer: 17]
Objective nonzeros   :       1
Linear constraints   :     165  [Less: 81,  Equal: 84]
  Nonzeros           :   55852
  RHS nonzeros       :      66

Variables            : Min LB: 0.000000         Max UB: 1.000000       
Objective nonzeros   : Min   : 1.000000         Max   : 1.000000       
Linear constraints   :
  Nonzeros           : Min   : 1.000000         Max   : 128311.0       
  RHS nonzeros       : Min   : 1.000000         Max   : 1.000000       
Tried aggregator 2 times.
MIP Presolve eliminated 127 rows and 903 columns.
Aggregator did 14 substitutions.
Reduced MIP has 24 rows, 141 columns, and 294 nonzeros.
Reduced MIP has 140 binaries, 1 generals, 0 SOSs, and 0 indicators.
Presolve time = 0.00 sec. (3.84 ticks)
Found incumbent of value 751886.000000 after 0.01 sec. (5.23 ticks)
Probing time = 0.00 sec. (0.20 ticks)
Cover probing fixed 0 vars, tightened 2 bounds.
Tried aggregator 1 time.
Reduced MIP has 24 rows, 141 columns, and 294 nonzeros.
Reduced MIP has 140 binaries, 1 generals, 0 SOSs, and 0 indicators.
Presolve time = 0.00 sec. (0.23 ticks)
Probing time = 0.00 sec. (0.18 ticks)
Clique table members: 10.
MIP emphasis: balance optimality and feasibility.
MIP search method: dynamic search.
Parallel mode: none, using 1 thread.
Root relaxation solution time = 0.00 sec. (0.19 ticks)

        Nodes                                         Cuts/
   Node  Left     Objective  IInf  Best Integer    Best Bound    ItCnt     Gap

*     0+    0                       751886.0000   185077.0000            75.38%
      0     0   185077.0000    19   751886.0000   185077.0000       41   75.38%
*     0+    0                       219919.0000   185077.0000            15.84%
      0     0   185077.0000    10   219919.0000      Cuts: 12       52   15.84%
*     0+    0                       185077.0000   185077.0000             0.00%
      0     0        cutoff         185077.0000   185077.0000       52    0.00%
Elapsed time = 0.01 sec. (7.32 ticks, tree = 0.01 MB, solutions = 2)

Implied bound cuts applied:  1
Mixed integer rounding cuts applied:  5
Gomory fractional cuts applied:  5

Root node processing (before b&c):
  Real time             =    0.01 sec. (7.36 ticks)
Sequential b&c:
  Real time             =    0.00 sec. (0.00 ticks)
                          ------------
Total (root+branch&cut) =    0.01 sec. (7.36 ticks)

Solution pool: 2 solutions saved.

MIP - Integer optimal solution:  Objective =  1.8507700000e+05
Solution time =    0.01 sec.  Iterations = 52  Nodes = 0
Deterministic time = 7.36 ticks  (830.70 ticks/sec)


Incumbent solution written to file '/tmp/tmpKzqOQJ.cplex.sol'.
